letting SIZE be 4
letting values be
[
 [ 0, 0, 0, 0 ],
 [ 0, 0, 0, 0 ],
 [ 1, 0, 0, 0 ],
 [ 3, 0, 0, 0 ]
]
$ specify last index in array lt; lt[0] is first entry
letting lastdx be 3
$ [i1,j1,i2,j2] requires that values[i1,j1]<values[i2,j2]
letting lt be
[
    [2,2,2,3],
    [3,2,3,3],
    [3,4,2,4],
    [3,4,4,4]
]

